
as = 18; % nombre d'assignatures total
t = 3;

nombreAules = [4, 1, 1]; % [nombre aules normals, nombre labs, nombre pavellons]

tipusAula = [1,1,1,1,1,2, 1,1,1,1,3,2, 1,1,1,1,3,2];  % 1 = aula normal, 2 = pavello, 3 = laboratori

prof =      [1,1,2,2,3,3, 1,1,2,2,3,4, 5,5,6,6,7,8];

curs =      [1,1,1,1,1,1, 2,2,2,2,2,2, 3,3,3,3,3,3];

assigIgual =[1,1,2,2,3,3, 4,4,5,5,6,7, 8,8,9,9,10,11];